(set-logic QF_S)
(declare-fun var_0xINPUT_169032 () String)
(assert (and (= (len var_0xINPUT_169032) 0) (= (len var_0xINPUT_169032) 0) (not (= var_0xINPUT_169032 "4PH2ujcENG"))))
(check-sat var_0xINPUT_169032)